p cnf 143 491
-1 -2 -3 0
1 2 -3 0
-1 2 3 0
1 -2 3 0
-5 -3 0
-5 -4 0
3 4 5 0
-8 -7 0
-8 3 0
7 -3 8 0
-9 6 0
-9 -8 0
-6 8 9 0
10 -8 0
10 3 0
8 -3 -10 0
11 -9 0
11 10 0
9 -10 -11 0
-13 -12 0
-13 6 0
12 -6 13 0
-14 2 0
-14 13 0
-2 -13 14 0
15 -11 0
15 14 0
11 -14 -15 0
-16 -5 0
-16 -15 0
5 15 16 0
18 17 -19 0
-18 -17 -19 0
18 -17 19 0
-18 17 19 0
-20 3 0
-20 7 0
-3 -7 20 0
-19 20 -21 0
19 -20 -21 0
-19 -20 21 0
19 20 21 0
-22 -8 -23 0
22 8 -23 0
-22 8 23 0
22 -8 23 0
25 -1 0
25 24 0
1 -24 -25 0
-26 23 0
-26 25 0
-23 -25 26 0
-26 18 -27 0
26 -18 -27 0
-26 -18 27 0
26 18 27 0
21 27 -28 0
-21 -27 -28 0
21 -27 28 0
-21 27 28 0
17 -28 -29 0
-17 28 -29 0
17 28 29 0
-17 -28 29 0
-31 -29 0
-31 -30 0
29 30 31 0
-32 17 0
-32 18 0
-17 -18 32 0
33 -17 0
33 -32 0
17 32 -33 0
31 33 -34 0
-31 -33 -34 0
31 -33 34 0
-31 33 34 0
-36 20 0
-36 -8 0
-20 8 36 0
-35 -36 -37 0
35 36 -37 0
-35 36 37 0
35 -36 37 0
-38 -23 0
-38 19 0
23 -19 38 0
37 38 -39 0
-37 -38 -39 0
37 -38 39 0
-37 38 39 0
40 34 0
40 -39 0
-34 39 -40 0
41 -1 0
41 35 0
1 -35 -41 0
-7 -41 -42 0
7 41 -42 0
-7 41 42 0
7 -41 42 0
-43 -42 0
-43 -20 0
42 20 43 0
3 20 -44 0
-3 -20 -44 0
3 -20 44 0
-3 20 44 0
46 -7 0
46 -12 0
7 12 -46 0
21 -46 -47 0
-21 46 -47 0
21 46 47 0
-21 -46 47 0
6 47 -48 0
-6 -47 -48 0
6 -47 48 0
-6 47 48 0
-45 48 -49 0
45 -48 -49 0
-45 -48 49 0
45 48 49 0
51 -50 0
51 3 0
50 -3 -51 0
52 51 0
52 2 0
-51 -2 -52 0
-2 4 -53 0
2 -4 -53 0
-2 -4 53 0
2 4 53 0
-52 53 -54 0
52 -53 -54 0
-52 -53 54 0
52 53 54 0
-55 49 0
-55 -54 0
-49 54 55 0
-56 44 0
-56 55 0
-44 -55 56 0
-57 -43 0
-57 -56 0
43 56 57 0
-58 -10 0
-58 51 0
10 -51 58 0
-18 7 -59 0
18 -7 -59 0
-18 -7 59 0
18 7 59 0
60 58 0
60 59 0
-58 -59 -60 0
61 46 -62 0
-61 -46 -62 0
61 -46 62 0
-61 46 62 0
-62 63 0
62 63 0
-64 -61 0
-64 63 0
61 -63 64 0
-65 -37 0
-65 64 0
37 -64 65 0
-65 46 -66 0
65 -46 -66 0
-65 -46 66 0
65 46 66 0
67 -60 0
67 -66 0
60 66 -67 0
-68 -41 0
-68 -41 0
41 68 0
69 41 0
69 -50 0
-41 50 -69 0
70 -68 0
70 -69 0
68 69 -70 0
-8 70 -71 0
8 -70 -71 0
-8 -70 71 0
8 70 71 0
-36 3 -72 0
36 -3 -72 0
-36 -3 72 0
36 3 72 0
-73 -8 0
-73 72 0
8 -72 73 0
74 -50 0
74 73 0
50 -73 -74 0
71 74 -75 0
-71 -74 -75 0
71 -74 75 0
-71 74 75 0
-76 -67 0
-76 75 0
67 -75 76 0
-36 -59 -77 0
36 59 -77 0
-36 59 77 0
36 -59 77 0
-53 21 -78 0
53 -21 -78 0
-53 -21 78 0
53 21 78 0
-79 13 0
-79 -20 0
-13 20 79 0
78 -79 -80 0
-78 79 -80 0
78 79 80 0
-78 -79 80 0
-65 -80 -81 0
65 80 -81 0
-65 80 81 0
65 -80 81 0
-77 -81 -82 0
77 81 -82 0
-77 81 82 0
77 -81 82 0
83 -76 0
83 -82 0
76 82 -83 0
-57 -83 -84 0
57 83 -84 0
-57 83 84 0
57 -83 84 0
85 8 0
85 24 0
-8 -24 -85 0
-85 86 -87 0
85 -86 -87 0
-85 -86 87 0
85 86 87 0
88 -68 0
88 12 0
68 -12 -88 0
89 80 0
89 88 0
-80 -88 -89 0
-90 87 0
-90 -89 0
-87 89 90 0
-91 62 0
-91 -85 0
-62 85 91 0
-92 21 0
-92 -6 0
-21 6 92 0
-93 50 0
-93 -69 0
-50 69 93 0
93 23 -94 0
-93 -23 -94 0
93 -23 94 0
-93 23 94 0
95 -24 0
95 72 0
24 -72 -95 0
96 -95 0
96 70 0
95 -70 -96 0
94 -96 -97 0
-94 96 -97 0
94 96 97 0
-94 -96 97 0
-98 92 0
-98 97 0
-92 -97 98 0
-99 -91 0
-99 -98 0
91 98 99 0
-100 51 0
-100 13 0
-51 -13 100 0
-101 -13 0
-101 -100 0
13 100 101 0
102 -101 0
102 101 0
-103 35 0
-103 -72 0
-35 72 103 0
104 102 0
104 103 0
-102 -103 -104 0
8 -6 -105 0
-8 6 -105 0
8 6 105 0
-8 -6 105 0
85 20 -106 0
-85 -20 -106 0
85 -20 106 0
-85 20 106 0
107 -6 0
107 -106 0
6 106 -107 0
108 17 0
108 1 0
-17 -1 -108 0
6 72 -109 0
-6 -72 -109 0
6 -72 109 0
-6 72 109 0
-110 -6 0
-110 -63 0
6 63 110 0
111 27 0
111 110 0
-27 -110 -111 0
-112 -111 0
-112 62 0
111 -62 112 0
-95 -12 -113 0
95 12 -113 0
-95 12 113 0
95 -12 113 0
-114 112 0
-114 113 0
-112 -113 114 0
109 -114 -115 0
-109 114 -115 0
109 114 115 0
-109 -114 115 0
116 108 0
116 -115 0
-108 115 -116 0
-107 116 -117 0
107 -116 -117 0
-107 -116 117 0
107 116 117 0
-105 -117 -118 0
105 117 -118 0
-105 117 118 0
105 -117 118 0
-119 -1 0
-119 -65 0
1 65 119 0
119 -21 -120 0
-119 21 -120 0
119 21 120 0
-119 -21 120 0
121 118 0
121 -120 0
-118 120 -121 0
122 88 0
122 -46 0
-88 46 -122 0
-52 -69 -123 0
52 69 -123 0
-52 69 123 0
52 -69 123 0
-124 78 0
-124 -32 0
-78 32 124 0
125 -123 0
125 124 0
123 -124 -125 0
-122 -125 -126 0
122 125 -126 0
-122 125 126 0
122 -125 126 0
-127 121 0
-127 -126 0
-121 126 127 0
128 -104 0
128 127 0
104 -127 -128 0
-129 -46 0
-129 79 0
46 -79 129 0
59 -25 -130 0
-59 25 -130 0
59 25 130 0
-59 -25 130 0
-129 130 -131 0
129 -130 -131 0
-129 -130 131 0
129 130 131 0
132 128 0
132 131 0
-128 -131 -132 0
38 24 -133 0
-38 -24 -133 0
38 -24 133 0
-38 24 133 0
-134 -132 0
-134 133 0
132 -133 134 0
-10 135 0
10 135 0
25 -41 -136 0
-25 41 -136 0
25 41 136 0
-25 -41 136 0
-135 136 -137 0
135 -136 -137 0
-135 -136 137 0
135 136 137 0
138 -134 0
138 -137 0
134 137 -138 0
-139 -99 0
-139 138 0
99 -138 139 0
90 139 -140 0
-90 -139 -140 0
90 -139 140 0
-90 139 140 0
141 -84 0
141 140 0
84 -140 -141 0
142 -40 0
142 141 0
40 -141 -142 0
-143 -16 0
-143 142 0
16 -142 143 0
48 -99 28 17 -5 0
-92 -36 -102 -37 6 -62 0
-136 -123 0
-8 91 -104 0
-20 -96 -63 0
-122 -15 -65 -67 121 -35 0
113 14 59 134 114 0
42 -128 -30 0
30 61 16 0
98 -128 119 -53 0
70 -13 0
81 29 67 20 63 0
-78 -80 0
6 -4 0
1 23 6 0
47 -75 0
126 -91 137 -58 -47 -101 0
-60 -66 40 -46 118 0
-57 -94 -1 0
12 -117 -15 0
-36 -79 -15 111 0
-60 77 -95 -84 11 122 0
-1 103 -93 7 0
37 -42 6 19 101 0
-61 6 -48 -124 0
-49 85 -40 138 0
-59 103 10 -125 0
-116 86 -105 -22 76 -101 0
15 89 0
138 -116 -5 118 0
-129 136 -53 15 12 117 0
91 9 33 54 -80 0
-108 -96 5 85 -50 0
127 -111 0
80 81 99 -46 0
-28 -142 -112 -39 0
93 88 -132 0
126 -106 23 69 37 0
-130 21 -116 0
-62 4 -63 -58 0
40 137 4 80 68 0
-67 120 68 0
126 -48 75 0
93 -108 18 49 0
124 6 -66 -77 0
45 -124 0
45 -105 133 0
59 102 -53 -55 67 -46 0
-43 -19 29 127 84 0
52 -84 -64 55 0
-54 -53 -87 -103 0
90 -3 129 -73 94 16 0
38 -29 -46 0
-124 85 0
-72 -125 104 -64 -61 0
-116 -65 -81 -103 0
-3 37 136 77 0
1 -67 -41 111 0
28 -13 9 -90 -10 49 0
-106 130 29 0
-126 -87 0
8 -10 -101 -112 16 0
4 -36 0
6 -13 -30 -5 -58 -2 0
143 0
